%%% static parameters %%%
timespan = 1;
Fact = [2];
Distr1 = [5];
Distr2 = [10];
Clients_N = [60];
Demand_W = [15];
Lt0 = [4];
Lt1 = [4];
SS_ = [0.85];
DS_D = [8];
K = [200];
MA = [500];
%%% dynamic parameters %%%
lost_ratio_sales_ret_th = 0.7029889392379499;
lost_ratio_sales_ret_w = 20;
lost_ratio_sales_dis_th = 0.19027158031784275;
lost_ratio_sales_dis_w = 79;
lost_ratio_sales_fac_th = 0.021404346197927637;
lost_ratio_sales_fac_w = 15;
stock_customer_MA_mean_relative_th = 0.3574927218707774;
stock_customer_MA_mean_relative_w = 84;
stock_distributor_MA_mean_relative_th = 0.08780912154862541;
stock_distributor_MA_mean_relative_w = 41;
stock_retailer_MA_mean_relative_th = 0.9384801381692359;
stock_retailer_MA_mean_relative_w = 87;
stock_factory_MA_mean_relative_th = 0.8375169833074756;
stock_factory_MA_mean_relative_w = 76;
